% Logging successfully configured
%%%mzn-stat: initTime=0.003613514
%%%mzn-stat: objective=560
%%%mzn-stat: nodes=611
%%%mzn-stat: restarts=0
%%%mzn-stat: peakDepth=183
%%%mzn-stat: solveTime=0.005763827
%%%mzn-stat: variables=378
%%%mzn-stat: propagators=260
%%%mzn-stat: failures=86
%%%mzn-stat: propagations=4084
%%%mzn-stat: nogoods=86
%%%mzn-stat: numAtomicConstraintsPropagated=0
%%%mzn-stat: allDifferentNumber1TotalHallSetSize=280
%%%mzn-stat: allDifferentNumber1NumberOfConflicts=83
%%%mzn-stat: allDifferentNumber1MaxHallSetSize=20
%%%mzn-stat: allDifferentNumber1PropagationsTotal=754
%%%mzn-stat: allDifferentNumber1PropagationsThatFoundConflict=83
%%%mzn-stat: circuitNumber2PropagationsThatFoundConflict=0
%%%mzn-stat: circuitNumber2TotalFixedEdgesAtConflict=0
%%%mzn-stat: circuitNumber2NumberOfConflicts=0
%%%mzn-stat: circuitNumber2PropagationsThatPruned=21
%%%mzn-stat: circuitNumber2PropagationsTotal=402
%%%mzn-stat: AverageConflictSize=3.5
%%%mzn-stat: NumUnitNogoodsLearned=0
%%%mzn-stat: AverageLearnedNogoodLength=3.616279069767442
%%%mzn-stat: AverageBacktrackAmount=0
%%%mzn-stat: AverageLbd=3.5232558139534884
%%%mzn-stat: 2AutonomousSearchNumBackupCalled=167
%%%mzn-stat: 2AutonomousSearchNumPredicatesRemoved=0
%%%mzn-stat: 2AutonomousSearchNumCalls=168
%%%mzn-stat: 2AutonomousSearchNumPredicatesAdded=186
%%%mzn-stat: 2AutonomousSearchAverageSizeOfHeap=1.1071428571428572
%%%mzn-stat: 2AutonomousSearchNumAssignedPredicatesEncountered=186
%%%mzn-stat-end
maxleg = 560;
succ = array1d(1..20,[2, 3, 4, 5, 7, 1, 8, 10, 11, 9, 18, 17, 12, 13, 16, 20, 15, 19, 14, 6]);
% time elapsed: 0.23 s
----------
%%%mzn-stat: initTime=0.003613514
%%%mzn-stat: objective=534
%%%mzn-stat: nodes=808
%%%mzn-stat: restarts=0
%%%mzn-stat: peakDepth=183
%%%mzn-stat: solveTime=0.006637537
%%%mzn-stat: variables=378
%%%mzn-stat: propagators=260
%%%mzn-stat: failures=100
%%%mzn-stat: propagations=4873
%%%mzn-stat: nogoods=100
%%%mzn-stat: numAtomicConstraintsPropagated=0
%%%mzn-stat: allDifferentNumber1TotalHallSetSize=315
%%%mzn-stat: allDifferentNumber1NumberOfConflicts=97
%%%mzn-stat: allDifferentNumber1MaxHallSetSize=20
%%%mzn-stat: allDifferentNumber1PropagationsTotal=836
%%%mzn-stat: allDifferentNumber1PropagationsThatFoundConflict=97
%%%mzn-stat: circuitNumber2PropagationsThatFoundConflict=0
%%%mzn-stat: circuitNumber2TotalFixedEdgesAtConflict=0
%%%mzn-stat: circuitNumber2NumberOfConflicts=0
%%%mzn-stat: circuitNumber2PropagationsThatPruned=23
%%%mzn-stat: circuitNumber2PropagationsTotal=444
%%%mzn-stat: AverageConflictSize=3.47
%%%mzn-stat: NumUnitNogoodsLearned=0
%%%mzn-stat: AverageLearnedNogoodLength=3.86
%%%mzn-stat: AverageBacktrackAmount=0
%%%mzn-stat: AverageLbd=3.7
%%%mzn-stat: 2AutonomousSearchNumBackupCalled=316
%%%mzn-stat: 2AutonomousSearchNumPredicatesRemoved=0
%%%mzn-stat: 2AutonomousSearchNumCalls=318
%%%mzn-stat: 2AutonomousSearchNumPredicatesAdded=297
%%%mzn-stat: 2AutonomousSearchAverageSizeOfHeap=1.3176100628930818
%%%mzn-stat: 2AutonomousSearchNumAssignedPredicatesEncountered=419
%%%mzn-stat-end
maxleg = 534;
succ = array1d(1..20,[2, 3, 4, 5, 7, 1, 8, 10, 11, 13, 12, 17, 18, 9, 16, 20, 15, 19, 14, 6]);
% time elapsed: 0.23 s
----------
%%%mzn-stat: initTime=0.003613514
%%%mzn-stat: objective=515
%%%mzn-stat: nodes=1059
%%%mzn-stat: restarts=0
%%%mzn-stat: peakDepth=183
%%%mzn-stat: solveTime=0.008645145
%%%mzn-stat: variables=378
%%%mzn-stat: propagators=260
%%%mzn-stat: failures=128
%%%mzn-stat: propagations=6287
%%%mzn-stat: nogoods=128
%%%mzn-stat: numAtomicConstraintsPropagated=0
%%%mzn-stat: allDifferentNumber1TotalHallSetSize=419
%%%mzn-stat: allDifferentNumber1NumberOfConflicts=125
%%%mzn-stat: allDifferentNumber1MaxHallSetSize=20
%%%mzn-stat: allDifferentNumber1PropagationsTotal=1008
%%%mzn-stat: allDifferentNumber1PropagationsThatFoundConflict=125
%%%mzn-stat: circuitNumber2PropagationsThatFoundConflict=0
%%%mzn-stat: circuitNumber2TotalFixedEdgesAtConflict=0
%%%mzn-stat: circuitNumber2NumberOfConflicts=0
%%%mzn-stat: circuitNumber2PropagationsThatPruned=33
%%%mzn-stat: circuitNumber2PropagationsTotal=536
%%%mzn-stat: AverageConflictSize=3.6796875
%%%mzn-stat: NumUnitNogoodsLearned=0
%%%mzn-stat: AverageLearnedNogoodLength=4.5546875
%%%mzn-stat: AverageBacktrackAmount=0
%%%mzn-stat: AverageLbd=4.1640625
%%%mzn-stat: 2AutonomousSearchNumBackupCalled=472
%%%mzn-stat: 2AutonomousSearchNumPredicatesRemoved=0
%%%mzn-stat: 2AutonomousSearchNumCalls=475
%%%mzn-stat: 2AutonomousSearchNumPredicatesAdded=463
%%%mzn-stat: 2AutonomousSearchAverageSizeOfHeap=1.454736842105263
%%%mzn-stat: 2AutonomousSearchNumAssignedPredicatesEncountered=691
%%%mzn-stat-end
maxleg = 515;
succ = array1d(1..20,[2, 3, 4, 5, 7, 1, 8, 10, 13, 16, 18, 11, 19, 6, 17, 20, 12, 9, 14, 15]);
% time elapsed: 0.23 s
----------
%%%mzn-stat: initTime=0.003613514
%%%mzn-stat: objective=502
%%%mzn-stat: nodes=1255
%%%mzn-stat: restarts=0
%%%mzn-stat: peakDepth=183
%%%mzn-stat: solveTime=0.009717866
%%%mzn-stat: variables=378
%%%mzn-stat: propagators=260
%%%mzn-stat: failures=143
%%%mzn-stat: propagations=7163
%%%mzn-stat: nogoods=143
%%%mzn-stat: numAtomicConstraintsPropagated=0
%%%mzn-stat: allDifferentNumber1TotalHallSetSize=456
%%%mzn-stat: allDifferentNumber1NumberOfConflicts=139
%%%mzn-stat: allDifferentNumber1MaxHallSetSize=20
%%%mzn-stat: allDifferentNumber1PropagationsTotal=1091
%%%mzn-stat: allDifferentNumber1PropagationsThatFoundConflict=139
%%%mzn-stat: circuitNumber2PropagationsThatFoundConflict=1
%%%mzn-stat: circuitNumber2TotalFixedEdgesAtConflict=13
%%%mzn-stat: circuitNumber2NumberOfConflicts=1
%%%mzn-stat: circuitNumber2PropagationsThatPruned=40
%%%mzn-stat: circuitNumber2PropagationsTotal=582
%%%mzn-stat: AverageConflictSize=3.6223776223776225
%%%mzn-stat: NumUnitNogoodsLearned=0
%%%mzn-stat: AverageLearnedNogoodLength=4.874125874125874
%%%mzn-stat: AverageBacktrackAmount=0
%%%mzn-stat: AverageLbd=4.3776223776223775
%%%mzn-stat: 2AutonomousSearchNumBackupCalled=626
%%%mzn-stat: 2AutonomousSearchNumPredicatesRemoved=0
%%%mzn-stat: 2AutonomousSearchNumCalls=630
%%%mzn-stat: 2AutonomousSearchNumPredicatesAdded=615
%%%mzn-stat: 2AutonomousSearchAverageSizeOfHeap=1.5587301587301587
%%%mzn-stat: 2AutonomousSearchNumAssignedPredicatesEncountered=982
%%%mzn-stat-end
maxleg = 502;
succ = array1d(1..20,[2, 3, 4, 5, 7, 1, 8, 10, 13, 19, 12, 17, 18, 9, 16, 20, 15, 11, 14, 6]);
% time elapsed: 0.23 s
----------
%%%mzn-stat: initTime=0.003613514
%%%mzn-stat: objective=483
%%%mzn-stat: nodes=1465
%%%mzn-stat: restarts=0
%%%mzn-stat: peakDepth=183
%%%mzn-stat: solveTime=0.011038642
%%%mzn-stat: variables=378
%%%mzn-stat: propagators=260
%%%mzn-stat: failures=161
%%%mzn-stat: propagations=8303
%%%mzn-stat: nogoods=161
%%%mzn-stat: numAtomicConstraintsPropagated=0
%%%mzn-stat: allDifferentNumber1TotalHallSetSize=506
%%%mzn-stat: allDifferentNumber1NumberOfConflicts=155
%%%mzn-stat: allDifferentNumber1MaxHallSetSize=20
%%%mzn-stat: allDifferentNumber1PropagationsTotal=1224
%%%mzn-stat: allDifferentNumber1PropagationsThatFoundConflict=155
%%%mzn-stat: circuitNumber2PropagationsThatFoundConflict=3
%%%mzn-stat: circuitNumber2TotalFixedEdgesAtConflict=40
%%%mzn-stat: circuitNumber2NumberOfConflicts=3
%%%mzn-stat: circuitNumber2PropagationsThatPruned=50
%%%mzn-stat: circuitNumber2PropagationsTotal=656
%%%mzn-stat: AverageConflictSize=3.6459627329192545
%%%mzn-stat: NumUnitNogoodsLearned=0
%%%mzn-stat: AverageLearnedNogoodLength=5.074534161490683
%%%mzn-stat: AverageBacktrackAmount=0
%%%mzn-stat: AverageLbd=4.391304347826087
%%%mzn-stat: 2AutonomousSearchNumBackupCalled=765
%%%mzn-stat: 2AutonomousSearchNumPredicatesRemoved=0
%%%mzn-stat: 2AutonomousSearchNumCalls=770
%%%mzn-stat: 2AutonomousSearchNumPredicatesAdded=727
%%%mzn-stat: 2AutonomousSearchAverageSizeOfHeap=1.6844155844155844
%%%mzn-stat: 2AutonomousSearchNumAssignedPredicatesEncountered=1297
%%%mzn-stat-end
maxleg = 483;
succ = array1d(1..20,[2, 3, 4, 5, 7, 8, 6, 10, 13, 19, 12, 17, 18, 9, 16, 20, 15, 11, 14, 1]);
% time elapsed: 0.23 s
----------
%%%mzn-stat: initTime=0.003613514
%%%mzn-stat: objective=454
%%%mzn-stat: nodes=2798
%%%mzn-stat: restarts=0
%%%mzn-stat: peakDepth=183
%%%mzn-stat: solveTime=0.083287066
%%%mzn-stat: variables=378
%%%mzn-stat: propagators=260
%%%mzn-stat: failures=1149
%%%mzn-stat: propagations=37014
%%%mzn-stat: nogoods=1149
%%%mzn-stat: numAtomicConstraintsPropagated=0
%%%mzn-stat: allDifferentNumber1TotalHallSetSize=10837
%%%mzn-stat: allDifferentNumber1NumberOfConflicts=1097
%%%mzn-stat: allDifferentNumber1MaxHallSetSize=20
%%%mzn-stat: allDifferentNumber1PropagationsTotal=4723
%%%mzn-stat: allDifferentNumber1PropagationsThatFoundConflict=1097
%%%mzn-stat: circuitNumber2PropagationsThatFoundConflict=24
%%%mzn-stat: circuitNumber2TotalFixedEdgesAtConflict=276
%%%mzn-stat: circuitNumber2NumberOfConflicts=24
%%%mzn-stat: circuitNumber2PropagationsThatPruned=405
%%%mzn-stat: circuitNumber2PropagationsTotal=2273
%%%mzn-stat: AverageConflictSize=14.754569190600522
%%%mzn-stat: NumUnitNogoodsLearned=0
%%%mzn-stat: AverageLearnedNogoodLength=16.75805047867711
%%%mzn-stat: AverageBacktrackAmount=0
%%%mzn-stat: AverageLbd=7.912967798085291
%%%mzn-stat: 2AutonomousSearchNumBackupCalled=895
%%%mzn-stat: 2AutonomousSearchNumPredicatesRemoved=0
%%%mzn-stat: 2AutonomousSearchNumCalls=901
%%%mzn-stat: 2AutonomousSearchNumPredicatesAdded=1153
%%%mzn-stat: 2AutonomousSearchAverageSizeOfHeap=2.0455049944506105
%%%mzn-stat: 2AutonomousSearchNumAssignedPredicatesEncountered=1843
%%%mzn-stat-end
maxleg = 454;
succ = array1d(1..20,[2, 3, 4, 5, 18, 7, 8, 1, 10, 12, 13, 17, 19, 9, 16, 20, 15, 11, 14, 6]);
% time elapsed: 0.29 s
----------
%%%mzn-stat: initTime=0.003613514
%%%mzn-stat: objective=449
%%%mzn-stat: nodes=2985
%%%mzn-stat: restarts=0
%%%mzn-stat: peakDepth=183
%%%mzn-stat: solveTime=0.085849007
%%%mzn-stat: variables=378
%%%mzn-stat: propagators=260
%%%mzn-stat: failures=1180
%%%mzn-stat: propagations=38302
%%%mzn-stat: nogoods=1180
%%%mzn-stat: numAtomicConstraintsPropagated=0
%%%mzn-stat: allDifferentNumber1TotalHallSetSize=11033
%%%mzn-stat: allDifferentNumber1NumberOfConflicts=1126
%%%mzn-stat: allDifferentNumber1MaxHallSetSize=20
%%%mzn-stat: allDifferentNumber1PropagationsTotal=4867
%%%mzn-stat: allDifferentNumber1PropagationsThatFoundConflict=1126
%%%mzn-stat: circuitNumber2PropagationsThatFoundConflict=26
%%%mzn-stat: circuitNumber2TotalFixedEdgesAtConflict=306
%%%mzn-stat: circuitNumber2NumberOfConflicts=26
%%%mzn-stat: circuitNumber2PropagationsThatPruned=424
%%%mzn-stat: circuitNumber2PropagationsTotal=2339
%%%mzn-stat: AverageConflictSize=14.659322033898306
%%%mzn-stat: NumUnitNogoodsLearned=0
%%%mzn-stat: AverageLearnedNogoodLength=16.658474576271185
%%%mzn-stat: AverageBacktrackAmount=0
%%%mzn-stat: AverageLbd=7.8338983050847455
%%%mzn-stat: 2AutonomousSearchNumBackupCalled=1017
%%%mzn-stat: 2AutonomousSearchNumPredicatesRemoved=0
%%%mzn-stat: 2AutonomousSearchNumCalls=1024
%%%mzn-stat: 2AutonomousSearchNumPredicatesAdded=1386
%%%mzn-stat: 2AutonomousSearchAverageSizeOfHeap=2.3759765625
%%%mzn-stat: 2AutonomousSearchNumAssignedPredicatesEncountered=2433
%%%mzn-stat-end
maxleg = 449;
succ = array1d(1..20,[2, 3, 4, 17, 7, 8, 6, 1, 13, 19, 18, 15, 11, 9, 16, 20, 12, 5, 14, 10]);
% time elapsed: 0.30 s
----------
%%%mzn-stat: initTime=0.003613514
%%%mzn-stat: objective=432
%%%mzn-stat: nodes=3140
%%%mzn-stat: restarts=0
%%%mzn-stat: peakDepth=183
%%%mzn-stat: solveTime=0.087335488
%%%mzn-stat: variables=378
%%%mzn-stat: propagators=260
%%%mzn-stat: failures=1199
%%%mzn-stat: propagations=39336
%%%mzn-stat: nogoods=1199
%%%mzn-stat: numAtomicConstraintsPropagated=0
%%%mzn-stat: allDifferentNumber1TotalHallSetSize=11077
%%%mzn-stat: allDifferentNumber1NumberOfConflicts=1139
%%%mzn-stat: allDifferentNumber1MaxHallSetSize=20
%%%mzn-stat: allDifferentNumber1PropagationsTotal=4945
%%%mzn-stat: allDifferentNumber1PropagationsThatFoundConflict=1139
%%%mzn-stat: circuitNumber2PropagationsThatFoundConflict=30
%%%mzn-stat: circuitNumber2TotalFixedEdgesAtConflict=371
%%%mzn-stat: circuitNumber2NumberOfConflicts=30
%%%mzn-stat: circuitNumber2PropagationsThatPruned=430
%%%mzn-stat: circuitNumber2PropagationsTotal=2376
%%%mzn-stat: AverageConflictSize=14.537114261884904
%%%mzn-stat: NumUnitNogoodsLearned=0
%%%mzn-stat: AverageLearnedNogoodLength=16.618015012510426
%%%mzn-stat: AverageBacktrackAmount=0
%%%mzn-stat: AverageLbd=7.809841534612177
%%%mzn-stat: 2AutonomousSearchNumBackupCalled=1136
%%%mzn-stat: 2AutonomousSearchNumPredicatesRemoved=0
%%%mzn-stat: 2AutonomousSearchNumCalls=1144
%%%mzn-stat: 2AutonomousSearchNumPredicatesAdded=1580
%%%mzn-stat: 2AutonomousSearchAverageSizeOfHeap=2.647727272727273
%%%mzn-stat: 2AutonomousSearchNumAssignedPredicatesEncountered=3029
%%%mzn-stat-end
maxleg = 432;
succ = array1d(1..20,[2, 3, 4, 17, 9, 7, 8, 1, 14, 15, 18, 13, 11, 19, 16, 20, 12, 5, 10, 6]);
% time elapsed: 0.30 s
----------
%%%mzn-stat: initTime=0.003613514
%%%mzn-stat: objective=416
%%%mzn-stat: nodes=3270
%%%mzn-stat: restarts=0
%%%mzn-stat: peakDepth=183
%%%mzn-stat: solveTime=0.087950983
%%%mzn-stat: variables=378
%%%mzn-stat: propagators=260
%%%mzn-stat: failures=1203
%%%mzn-stat: propagations=39998
%%%mzn-stat: nogoods=1203
%%%mzn-stat: numAtomicConstraintsPropagated=0
%%%mzn-stat: allDifferentNumber1TotalHallSetSize=11084
%%%mzn-stat: allDifferentNumber1NumberOfConflicts=1142
%%%mzn-stat: allDifferentNumber1MaxHallSetSize=20
%%%mzn-stat: allDifferentNumber1PropagationsTotal=4986
%%%mzn-stat: allDifferentNumber1PropagationsThatFoundConflict=1142
%%%mzn-stat: circuitNumber2PropagationsThatFoundConflict=31
%%%mzn-stat: circuitNumber2TotalFixedEdgesAtConflict=388
%%%mzn-stat: circuitNumber2NumberOfConflicts=31
%%%mzn-stat: circuitNumber2PropagationsThatPruned=435
%%%mzn-stat: circuitNumber2PropagationsTotal=2401
%%%mzn-stat: AverageConflictSize=14.511221945137157
%%%mzn-stat: NumUnitNogoodsLearned=0
%%%mzn-stat: AverageLearnedNogoodLength=16.609310058187862
%%%mzn-stat: AverageBacktrackAmount=0
%%%mzn-stat: AverageLbd=7.802992518703242
%%%mzn-stat: 2AutonomousSearchNumBackupCalled=1244
%%%mzn-stat: 2AutonomousSearchNumPredicatesRemoved=0
%%%mzn-stat: 2AutonomousSearchNumCalls=1253
%%%mzn-stat: 2AutonomousSearchNumPredicatesAdded=1674
%%%mzn-stat: 2AutonomousSearchAverageSizeOfHeap=2.893854748603352
%%%mzn-stat: 2AutonomousSearchNumAssignedPredicatesEncountered=3626
%%%mzn-stat-end
maxleg = 416;
succ = array1d(1..20,[2, 3, 4, 17, 9, 7, 14, 1, 10, 8, 18, 15, 11, 19, 16, 20, 12, 5, 13, 6]);
% time elapsed: 0.30 s
----------
%%%mzn-stat: initTime=0.003613514
%%%mzn-stat: objective=401
%%%mzn-stat: nodes=3449
%%%mzn-stat: restarts=0
%%%mzn-stat: peakDepth=183
%%%mzn-stat: solveTime=0.089909054
%%%mzn-stat: variables=378
%%%mzn-stat: propagators=260
%%%mzn-stat: failures=1225
%%%mzn-stat: propagations=41700
%%%mzn-stat: nogoods=1225
%%%mzn-stat: numAtomicConstraintsPropagated=0
%%%mzn-stat: allDifferentNumber1TotalHallSetSize=11167
%%%mzn-stat: allDifferentNumber1NumberOfConflicts=1163
%%%mzn-stat: allDifferentNumber1MaxHallSetSize=20
%%%mzn-stat: allDifferentNumber1PropagationsTotal=5152
%%%mzn-stat: allDifferentNumber1PropagationsThatFoundConflict=1163
%%%mzn-stat: circuitNumber2PropagationsThatFoundConflict=31
%%%mzn-stat: circuitNumber2TotalFixedEdgesAtConflict=388
%%%mzn-stat: circuitNumber2NumberOfConflicts=31
%%%mzn-stat: circuitNumber2PropagationsThatPruned=458
%%%mzn-stat: circuitNumber2PropagationsTotal=2491
%%%mzn-stat: AverageConflictSize=14.351836734693878
%%%mzn-stat: NumUnitNogoodsLearned=0
%%%mzn-stat: AverageLearnedNogoodLength=16.448979591836736
%%%mzn-stat: AverageBacktrackAmount=0
%%%mzn-stat: AverageLbd=7.725714285714286
%%%mzn-stat: 2AutonomousSearchNumBackupCalled=1342
%%%mzn-stat: 2AutonomousSearchNumPredicatesRemoved=0
%%%mzn-stat: 2AutonomousSearchNumCalls=1352
%%%mzn-stat: 2AutonomousSearchNumPredicatesAdded=1847
%%%mzn-stat: 2AutonomousSearchAverageSizeOfHeap=3.139792899408284
%%%mzn-stat: 2AutonomousSearchNumAssignedPredicatesEncountered=4245
%%%mzn-stat-end
maxleg = 401;
succ = array1d(1..20,[2, 6, 4, 9, 14, 8, 19, 15, 13, 16, 18, 17, 11, 7, 12, 20, 3, 5, 10, 1]);
% time elapsed: 0.30 s
----------
%%%mzn-stat: initTime=0.003613514
%%%mzn-stat: objective=396
%%%mzn-stat: nodes=3672
%%%mzn-stat: restarts=0
%%%mzn-stat: peakDepth=183
%%%mzn-stat: solveTime=0.097070102
%%%mzn-stat: variables=378
%%%mzn-stat: propagators=260
%%%mzn-stat: failures=1309
%%%mzn-stat: propagations=45014
%%%mzn-stat: nogoods=1309
%%%mzn-stat: numAtomicConstraintsPropagated=0
%%%mzn-stat: allDifferentNumber1TotalHallSetSize=11797
%%%mzn-stat: allDifferentNumber1NumberOfConflicts=1247
%%%mzn-stat: allDifferentNumber1MaxHallSetSize=20
%%%mzn-stat: allDifferentNumber1PropagationsTotal=5433
%%%mzn-stat: allDifferentNumber1PropagationsThatFoundConflict=1247
%%%mzn-stat: circuitNumber2PropagationsThatFoundConflict=31
%%%mzn-stat: circuitNumber2TotalFixedEdgesAtConflict=388
%%%mzn-stat: circuitNumber2NumberOfConflicts=31
%%%mzn-stat: circuitNumber2PropagationsThatPruned=504
%%%mzn-stat: circuitNumber2PropagationsTotal=2629
%%%mzn-stat: AverageConflictSize=14.234530175706647
%%%mzn-stat: NumUnitNogoodsLearned=0
%%%mzn-stat: AverageLearnedNogoodLength=16.702062643239113
%%%mzn-stat: AverageBacktrackAmount=0
%%%mzn-stat: AverageLbd=7.653170359052712
%%%mzn-stat: 2AutonomousSearchNumBackupCalled=1447
%%%mzn-stat: 2AutonomousSearchNumPredicatesRemoved=0
%%%mzn-stat: 2AutonomousSearchNumCalls=1458
%%%mzn-stat: 2AutonomousSearchNumPredicatesAdded=2194
%%%mzn-stat: 2AutonomousSearchAverageSizeOfHeap=3.350480109739369
%%%mzn-stat: 2AutonomousSearchNumAssignedPredicatesEncountered=4885
%%%mzn-stat-end
maxleg = 396;
succ = array1d(1..20,[2, 6, 4, 9, 18, 7, 14, 1, 10, 15, 13, 17, 12, 19, 16, 20, 3, 11, 5, 8]);
% time elapsed: 0.32 s
----------
%%%mzn-stat: initTime=0.003613514
%%%mzn-stat: objective=388
%%%mzn-stat: nodes=3789
%%%mzn-stat: restarts=0
%%%mzn-stat: peakDepth=183
%%%mzn-stat: solveTime=0.097515538
%%%mzn-stat: variables=378
%%%mzn-stat: propagators=260
%%%mzn-stat: failures=1310
%%%mzn-stat: propagations=45531
%%%mzn-stat: nogoods=1310
%%%mzn-stat: numAtomicConstraintsPropagated=0
%%%mzn-stat: allDifferentNumber1TotalHallSetSize=11797
%%%mzn-stat: allDifferentNumber1NumberOfConflicts=1247
%%%mzn-stat: allDifferentNumber1MaxHallSetSize=20
%%%mzn-stat: allDifferentNumber1PropagationsTotal=5454
%%%mzn-stat: allDifferentNumber1PropagationsThatFoundConflict=1247
%%%mzn-stat: circuitNumber2PropagationsThatFoundConflict=31
%%%mzn-stat: circuitNumber2TotalFixedEdgesAtConflict=388
%%%mzn-stat: circuitNumber2NumberOfConflicts=31
%%%mzn-stat: circuitNumber2PropagationsThatPruned=506
%%%mzn-stat: circuitNumber2PropagationsTotal=2643
%%%mzn-stat: AverageConflictSize=14.225190839694656
%%%mzn-stat: NumUnitNogoodsLearned=0
%%%mzn-stat: AverageLearnedNogoodLength=16.700763358778627
%%%mzn-stat: AverageBacktrackAmount=0
%%%mzn-stat: AverageLbd=7.651908396946565
%%%mzn-stat: 2AutonomousSearchNumBackupCalled=1550
%%%mzn-stat: 2AutonomousSearchNumPredicatesRemoved=0
%%%mzn-stat: 2AutonomousSearchNumCalls=1562
%%%mzn-stat: 2AutonomousSearchNumPredicatesAdded=2240
%%%mzn-stat: 2AutonomousSearchAverageSizeOfHeap=3.5371318822023046
%%%mzn-stat: 2AutonomousSearchNumAssignedPredicatesEncountered=5525
%%%mzn-stat-end
maxleg = 388;
succ = array1d(1..20,[2, 6, 4, 9, 18, 7, 14, 15, 10, 8, 13, 17, 12, 19, 16, 20, 3, 11, 5, 1]);
% time elapsed: 0.32 s
----------
%%%mzn-stat: initTime=0.003613514
%%%mzn-stat: objective=385
%%%mzn-stat: nodes=3931
%%%mzn-stat: restarts=0
%%%mzn-stat: peakDepth=183
%%%mzn-stat: solveTime=0.099146807
%%%mzn-stat: variables=378
%%%mzn-stat: propagators=260
%%%mzn-stat: failures=1326
%%%mzn-stat: propagations=46876
%%%mzn-stat: nogoods=1326
%%%mzn-stat: numAtomicConstraintsPropagated=0
%%%mzn-stat: allDifferentNumber1TotalHallSetSize=11888
%%%mzn-stat: allDifferentNumber1NumberOfConflicts=1261
%%%mzn-stat: allDifferentNumber1MaxHallSetSize=20
%%%mzn-stat: allDifferentNumber1PropagationsTotal=5568
%%%mzn-stat: allDifferentNumber1PropagationsThatFoundConflict=1261
%%%mzn-stat: circuitNumber2PropagationsThatFoundConflict=33
%%%mzn-stat: circuitNumber2TotalFixedEdgesAtConflict=408
%%%mzn-stat: circuitNumber2NumberOfConflicts=33
%%%mzn-stat: circuitNumber2PropagationsThatPruned=513
%%%mzn-stat: circuitNumber2PropagationsTotal=2706
%%%mzn-stat: AverageConflictSize=14.20286576168929
%%%mzn-stat: NumUnitNogoodsLearned=0
%%%mzn-stat: AverageLearnedNogoodLength=16.67873303167421
%%%mzn-stat: AverageBacktrackAmount=0
%%%mzn-stat: AverageLbd=7.634238310708899
%%%mzn-stat: 2AutonomousSearchNumBackupCalled=1636
%%%mzn-stat: 2AutonomousSearchNumPredicatesRemoved=0
%%%mzn-stat: 2AutonomousSearchNumCalls=1649
%%%mzn-stat: 2AutonomousSearchNumPredicatesAdded=2445
%%%mzn-stat: 2AutonomousSearchAverageSizeOfHeap=3.7392359005457854
%%%mzn-stat: 2AutonomousSearchNumAssignedPredicatesEncountered=6166
%%%mzn-stat-end
maxleg = 385;
succ = array1d(1..20,[2, 8, 4, 9, 14, 15, 6, 16, 13, 12, 18, 17, 11, 19, 1, 20, 3, 5, 7, 10]);
% time elapsed: 0.32 s
----------
%%%mzn-stat: initTime=0.003613514
%%%mzn-stat: objective=384
%%%mzn-stat: nodes=4045
%%%mzn-stat: restarts=0
%%%mzn-stat: peakDepth=183
%%%mzn-stat: solveTime=0.100099391
%%%mzn-stat: variables=378
%%%mzn-stat: propagators=260
%%%mzn-stat: failures=1333
%%%mzn-stat: propagations=47744
%%%mzn-stat: nogoods=1333
%%%mzn-stat: numAtomicConstraintsPropagated=0
%%%mzn-stat: allDifferentNumber1TotalHallSetSize=11931
%%%mzn-stat: allDifferentNumber1NumberOfConflicts=1268
%%%mzn-stat: allDifferentNumber1MaxHallSetSize=20
%%%mzn-stat: allDifferentNumber1PropagationsTotal=5626
%%%mzn-stat: allDifferentNumber1PropagationsThatFoundConflict=1268
%%%mzn-stat: circuitNumber2PropagationsThatFoundConflict=33
%%%mzn-stat: circuitNumber2TotalFixedEdgesAtConflict=408
%%%mzn-stat: circuitNumber2NumberOfConflicts=33
%%%mzn-stat: circuitNumber2PropagationsThatPruned=519
%%%mzn-stat: circuitNumber2PropagationsTotal=2741
%%%mzn-stat: AverageConflictSize=14.19429857464366
%%%mzn-stat: NumUnitNogoodsLearned=0
%%%mzn-stat: AverageLearnedNogoodLength=16.693923480870218
%%%mzn-stat: AverageBacktrackAmount=0
%%%mzn-stat: AverageLbd=7.637659414853713
%%%mzn-stat: 2AutonomousSearchNumBackupCalled=1722
%%%mzn-stat: 2AutonomousSearchNumPredicatesRemoved=0
%%%mzn-stat: 2AutonomousSearchNumCalls=1736
%%%mzn-stat: 2AutonomousSearchNumPredicatesAdded=2577
%%%mzn-stat: 2AutonomousSearchAverageSizeOfHeap=3.923963133640553
%%%mzn-stat: 2AutonomousSearchNumAssignedPredicatesEncountered=6812
%%%mzn-stat-end
maxleg = 384;
succ = array1d(1..20,[2, 8, 4, 9, 14, 16, 6, 15, 13, 12, 18, 17, 11, 19, 10, 20, 3, 5, 7, 1]);
% time elapsed: 0.32 s
----------
%%%mzn-stat: initTime=0.003613514
%%%mzn-stat: objective=377
%%%mzn-stat: nodes=4227
%%%mzn-stat: restarts=0
%%%mzn-stat: peakDepth=183
%%%mzn-stat: solveTime=0.10540243
%%%mzn-stat: variables=378
%%%mzn-stat: propagators=260
%%%mzn-stat: failures=1388
%%%mzn-stat: propagations=50481
%%%mzn-stat: nogoods=1388
%%%mzn-stat: numAtomicConstraintsPropagated=0
%%%mzn-stat: allDifferentNumber1TotalHallSetSize=12241
%%%mzn-stat: allDifferentNumber1NumberOfConflicts=1319
%%%mzn-stat: allDifferentNumber1MaxHallSetSize=20
%%%mzn-stat: allDifferentNumber1PropagationsTotal=5880
%%%mzn-stat: allDifferentNumber1PropagationsThatFoundConflict=1319
%%%mzn-stat: circuitNumber2PropagationsThatFoundConflict=35
%%%mzn-stat: circuitNumber2TotalFixedEdgesAtConflict=428
%%%mzn-stat: circuitNumber2NumberOfConflicts=35
%%%mzn-stat: circuitNumber2PropagationsThatPruned=554
%%%mzn-stat: circuitNumber2PropagationsTotal=2880
%%%mzn-stat: AverageConflictSize=14.221902017291066
%%%mzn-stat: NumUnitNogoodsLearned=0
%%%mzn-stat: AverageLearnedNogoodLength=16.902017291066283
%%%mzn-stat: AverageBacktrackAmount=0
%%%mzn-stat: AverageLbd=7.578530259365994
%%%mzn-stat: 2AutonomousSearchNumBackupCalled=1810
%%%mzn-stat: 2AutonomousSearchNumPredicatesRemoved=0
%%%mzn-stat: 2AutonomousSearchNumCalls=1825
%%%mzn-stat: 2AutonomousSearchNumPredicatesAdded=2893
%%%mzn-stat: 2AutonomousSearchAverageSizeOfHeap=4.090410958904109
%%%mzn-stat: 2AutonomousSearchNumAssignedPredicatesEncountered=7465
%%%mzn-stat-end
maxleg = 377;
succ = array1d(1..20,[2, 8, 4, 11, 9, 16, 6, 15, 14, 12, 18, 17, 5, 19, 10, 20, 3, 13, 7, 1]);
% time elapsed: 0.33 s
----------
==========
% time elapsed: 0.33 s
%%%mzn-stat: initTime=0.003613514
%%%mzn-stat: objective=377
%%%mzn-stat: nodes=4311
%%%mzn-stat: restarts=0
%%%mzn-stat: peakDepth=183
%%%mzn-stat: solveTime=0.111780579
%%%mzn-stat: variables=378
%%%mzn-stat: propagators=260
%%%mzn-stat: failures=1459
%%%mzn-stat: propagations=53009
%%%mzn-stat: nogoods=1459
%%%mzn-stat: numAtomicConstraintsPropagated=0
%%%mzn-stat: allDifferentNumber1TotalHallSetSize=13326
%%%mzn-stat: allDifferentNumber1NumberOfConflicts=1389
%%%mzn-stat: allDifferentNumber1MaxHallSetSize=20
%%%mzn-stat: allDifferentNumber1PropagationsTotal=6169
%%%mzn-stat: allDifferentNumber1PropagationsThatFoundConflict=1389
%%%mzn-stat: circuitNumber2PropagationsThatFoundConflict=36
%%%mzn-stat: circuitNumber2TotalFixedEdgesAtConflict=434
%%%mzn-stat: circuitNumber2NumberOfConflicts=36
%%%mzn-stat: circuitNumber2PropagationsThatPruned=615
%%%mzn-stat: circuitNumber2PropagationsTotal=3023
%%%mzn-stat: AverageConflictSize=14.618231665524332
%%%mzn-stat: NumUnitNogoodsLearned=1
%%%mzn-stat: AverageLearnedNogoodLength=17.68403015764222
%%%mzn-stat: AverageBacktrackAmount=0
%%%mzn-stat: AverageLbd=7.3618917066483895
%%%mzn-stat: 2AutonomousSearchNumBackupCalled=1810
%%%mzn-stat: 2AutonomousSearchNumPredicatesRemoved=0
%%%mzn-stat: 2AutonomousSearchNumCalls=1825
%%%mzn-stat: 2AutonomousSearchNumPredicatesAdded=3352
%%%mzn-stat: 2AutonomousSearchAverageSizeOfHeap=4.090410958904109
%%%mzn-stat: 2AutonomousSearchNumAssignedPredicatesEncountered=7465
%%%mzn-stat-end
